1 60 151968 862 3 1029 903 4848 75 3567 1667 652 517 1296 590 3511 240 3608 484 363 1136 5134 914 1613 1802 5702 1233 5862 1131 174 177 168 1552 3280 1028 3956 939 4382 400 2912 1220 534 802 3256 177 4799 1404 3034 593 4139 64 3938 1871 3116 667 777 60 5112 1341 1016 1143 3286 700 1133 1203 5864 1280 4740 332 5617 118 4993 1658 416 707 1759 1308 4443 324 5262 1059 1405 394 4046 683 1785 1708 3294 1886 3769 1907 5731 426 3523 1724 3209 1665 1189 431 5704 854 3549 134 2069 143 1618 1299 3802 1416 4203 496 516 1924 2862 1213 4455 908 4690 1501 4145 613 4244 1625
